=== Ex1 - Case3 - NetNeg - Python ===

\ENCODING=ISO-8859-1
\Problem name: 

Minimize
 obj: 100 abs_{TF,0}#4 + 100 abs_{P,0}#5 + 20 xp_{TF,0}#6 + 20 xp_{P,0}#7
      + 20 xm_{TF,0}#8 + 20 xm_{P,0}#9
Subject To
 c1:  x_{P,0}#1 + up_{0,0}#10 >= 0
 c2:  - x_{P,0}#1 + um_{0,0}#11 >= 0
 c3:  up_{0,0}#10 + um_{0,0}#11 <= 1
 c4:  x_{P,0}#1 + up_{0,0}#10 - um_{0,0}#11 <= 0
 c5:  - x_{P,0}#1 - up_{0,0}#10 + um_{0,0}#11 <= 0
 c6:  xp_{TF,0}#6 - up_{0,0}#10 <= 0
 c7:  xp_{P,0}#7 <= 0
 c8:  xm_{TF,0}#8 - um_{0,0}#11 <= 0
 c9:  xm_{P,0}#9 <= 0
 c10: x_{TF,0}#0 - B_{TF,0}#2 - xp_{TF,0}#6 + xm_{TF,0}#8  = 0
 c11: x_{P,0}#1 - B_{P,0}#3 - xp_{P,0}#7 + xm_{P,0}#9  = 0
 c12: - x_{TF,0}#0 + abs_{TF,0}#4 >= 1
 c13: x_{TF,0}#0 + abs_{TF,0}#4 >= -1
 c14: - 101 up_{0,0}#10 + dist_{TF,0}#12 - dist_{P,0}#13 >= -100
 c15: - 101 um_{0,0}#11 + dist_{TF,0}#12 - dist_{P,0}#13 >= -100
 c16: x_{P,0}#1  = 1
 c17: x_{P,0}#1 - B_{P,0}#3  = 0
 c18: B_{TF,0}#2  = 0
Bounds
-1 <= x_{TF,0}#0 <= 1
-1 <= x_{P,0}#1 <= 1
-1 <= B_{TF,0}#2 <= 1
-1 <= B_{P,0}#3 <= 1
 0 <= abs_{TF,0}#4 <= 2
 0 <= abs_{P,0}#5 <= 2
 0 <= xp_{TF,0}#6 <= 1
 0 <= xp_{P,0}#7 <= 1
 0 <= xm_{TF,0}#8 <= 1
 0 <= xm_{P,0}#9 <= 1
 0 <= up_{0,0}#10 <= 1
 0 <= um_{0,0}#11 <= 1
 0 <= dist_{TF,0}#12 <= 100
 0 <= dist_{P,0}#13 <= 100
Binaries
 xp_{TF,0}#6  xp_{P,0}#7  xm_{TF,0}#8  xm_{P,0}#9  up_{0,0}#10  um_{0,0}#11 
Generals
 x_{TF,0}#0  x_{P,0}#1  B_{TF,0}#2  B_{P,0}#3  abs_{TF,0}#4  abs_{P,0}#5 
End
